Al2 Mg O4
1.0
        5.7664999962         0.0000000000         0.0000000000
        2.8832499981         4.9939354876         0.0000000000
        2.8832499981         1.6646451625         4.7083275308
    O   Al   Mg
    8    4    2
Direct
     0.237800002         0.237800002         0.237800002
     0.762199998         0.762199998         0.762199998
     0.786599994         0.237800002         0.237800002
     0.213400006         0.762199998         0.762199998
     0.237800002         0.786599994         0.237800002
     0.762199998         0.213400006         0.762199998
     0.237800002         0.237800002         0.786599994
     0.762199998         0.762199998         0.213400006
     0.000000000         0.000000000         0.000000000
     0.500000000         0.000000000         0.000000000
     0.000000000         0.500000000         0.000000000
     0.000000000         0.000000000         0.500000000
     0.375000000         0.375000000         0.375000000
     0.625000000         0.625000000         0.625000000
