PtZrO2                                  
   1.00000000000000     
    10.7974999999999994    0.0000000000000000    0.0000000000000000
     5.3987999999999996    9.3508999999999993    0.0000000000000000
     0.0000000000000000    0.0000000000000000   29.5096999999999987
   Pt   O    Zr
   112    72    36
Direct
  0.1666376936950638  0.1666579915352983  0.0078871742000441
  0.4165790204944443  0.1668266476681892  0.0055093592183816
  0.6667115980691919  0.1666416746058235  0.0078939925137650
  0.9169182804155978  0.1661623036305074  0.0120916598455883
  0.1668042609993972  0.4166086940425843  0.0055020936230645
  0.4165807775068134  0.4166067346550192  0.0055083347365513
  0.6669375376834001  0.4160026318538496  0.0079180539409433
  0.9170550774273005  0.4160018382634606  0.0079146069692582
  0.1666349266086780  0.6667207487957344  0.0078850312546378
  0.4160006521532112  0.6669495015323345  0.0079202071804956
  0.6666582995659665  0.6666796004601138  0.0074322490447519
  0.9170427163442069  0.6669450768206902  0.0079193878977714
  0.1661482349456781  0.9169326615811136  0.0120875263163696
  0.4160022044946570  0.9170635795882303  0.0079193819123839
  0.6669402669592287  0.9170672396894221  0.0079199512931021
  0.9169227667167116  0.9169291419879624  0.0120888042273998
  0.0838932174660529  0.0839080571007897  0.0970466304922849
  0.3331228112429188  0.0832594471299955  0.0898599411580039
  0.5836050727559030  0.0832662613448892  0.0898641383666766
  0.8322030154885911  0.0839037478159938  0.0970478436421539
  0.0832438241494842  0.3331407007416774  0.0898552991884187
  0.3333134740643784  0.3333520987578174  0.0874137776650326
  0.5836122099263799  0.3331327802318165  0.0898610325160160
  0.8338953433154254  0.3322105789832530  0.0932835673156087
  0.0832354527796880  0.5836366205934872  0.0898651277710791
  0.3331173547530594  0.5836262819425345  0.0898640143492167
  0.5832015847454801  0.5832050427579097  0.0896772055826951
  0.8335783717208616  0.5832141066722494  0.0896716032810125
  0.0838870994492801  0.8322198026538699  0.0970423737844284
  0.3322069664648636  0.8338945414304483  0.0932842201600547
  0.5832007839353410  0.8335874949232627  0.0896757016915686
  0.8338836059787580  0.8339094998373018  0.0932845177692999
  0.0000047065127364 -0.0000144760828402  0.1780034081547737
  0.2542424048453294  0.0002226523378328  0.1782021952489548
  0.4995131502926595  0.0009566406071856  0.1747685610873103
  0.7455265748425017  0.0002277393759174  0.1782094882532619
  0.0002396512702475  0.2542300940146567  0.1782041956274439
  0.2510126362765508  0.2510187192460185  0.1732035538484882
  0.4979448181437841  0.2510161513682228  0.1731965707586312
  0.7455176396594126  0.2542320947465818  0.1782011714197358
  0.0009707348140445  0.4995066516917133  0.1747655389500365
  0.2510141186240352  0.4979537826243949  0.1732106082787576
  0.4995080227674045  0.4995084167454324  0.1747720553053641
  0.7488321069116135  0.5023279539137121  0.1751414909413709
  0.0002438237774327  0.7455156562123483  0.1782045696277195
  0.2542366853749081  0.7455145975019077  0.1782051300078636
  0.5023311280011435  0.7488252068749482  0.1751394059978150
  0.7488367024775003  0.7488221435467571  0.1751401991260217
  0.0000004994594164 -0.0000066312069433  0.6775598796932946
  0.2489315433287523 -0.0009964098486976  0.6761363327671744
  0.5021369762925282 -0.0042695103544230  0.6731903323324667
  0.7520463118771247 -0.0009813485573398  0.6761262476724125
  0.9990097715885744  0.2489308603368161  0.6761375934184261
  0.2482887638017478  0.2482978324776090  0.6726513016219416
  0.5034163137574984  0.2482984105380194  0.6726497280206977
  0.7520711888850037  0.2489205675957613  0.6761208270059683
  0.9957442265750208  0.5021307235051345  0.6731817085371986
  0.2483005387621911  0.5034083418379645  0.6726553385581892
  0.5021400753431682  0.5021340447289917  0.6731847998145744
  0.7502093605993595  0.4996031946893650  0.6754224520719290
  0.9990141090991169  0.7520505890660535  0.6761245681627853
  0.2489337756853610  0.7520479600839023  0.6761237231710615
  0.4996106417272556  0.7501917933185921  0.6754214401220751
  0.7501911349034027  0.7501845681391756  0.6754265103135234
  0.1664582055430548  0.1664641479833150  0.7593153520570777
  0.4167193354131327  0.1665600868893885  0.7535618996494508
  0.6670803309948913  0.1664662558268142  0.7593132618667133
  0.9166443714899531  0.1667053742675275  0.7623353241409717
  0.1665577130753794  0.4167281265647881  0.7535773800379271
  0.4167145398006297  0.4167198081252594  0.7535748018045894
  0.6662602149731031  0.4165916501594547  0.7601504295837039
  0.9171444528084316  0.4165987569060570  0.7601521346696588
  0.1664533163278068  0.6670868272426826  0.7593141939080105
  0.4165880011402036  0.6662611129948365  0.7601505723645935
  0.6666597424764644  0.6666692998539239  0.7608499561936861
  0.9171363420742477  0.6662682677152745  0.7601504521983413
  0.1667062135311607  0.9166381812064867  0.7623223887666534
  0.4165885219002369  0.9171511291233363  0.7601425878042749
  0.6662543171494117  0.9171582262036464  0.7601439955425399
  0.9166378994467970  0.9166458430303036  0.7623082584918222
  0.0833677687632266  0.0833982238556281  0.8450810413284793
  0.3331665513994366  0.0839665812927509  0.8411388398102329
  0.5828539602699569  0.0839750573268957  0.8411486615395105
  0.8332190514620141  0.0833954501733909  0.8450835441377182
  0.0839586584441106  0.3331776785831668  0.8411448387885700
  0.3333402023301851  0.3333331580966017  0.8368332169633700
  0.5828532147111007  0.3331826254811860  0.8411548454821155
  0.8335672625905867  0.3328548450562152  0.8435753467896216
  0.0839714015851338  0.5828713468986834  0.8411414853583264
  0.3331687439001634  0.5828831156522303  0.8411506754225166
  0.5831206911892705  0.5831453069655811  0.8429193596111806
  0.8337330605911281  0.5831424008687996  0.8429187967804797
  0.0833640114939098  0.8332558694936452  0.8450794725090440
  0.3328269383320129  0.8335976686891898  0.8435696506035991
  0.5831173985707453  0.8337509673975143  0.8429145172534972
  0.8335697211092159  0.8335949326934531  0.8435711252035254
  0.0000004079647772  0.0000064005447694  0.9298472339434495
  0.2493447165787261  0.0002722145694527  0.9266640566946208
  0.4994328015477114  0.0011378918489255  0.9240142236292849
  0.7503984161437603  0.0002575517265929  0.9266693446594559
  0.0002597546151920  0.2493560776684448  0.9266679780640010
  0.2500921732396523  0.2500877706506300  0.9221395612487656
  0.4998605106828676  0.2500716748184463  0.9221616532718483
  0.7503963476021196  0.2493535042113049  0.9266699642313106
  0.0011207194695491  0.4994477492496947  0.9240151653511135
  0.2500922304775438  0.4998207029795904  0.9221433826268739
  0.4994324508348688  0.4994412340276393  0.9240172114655395
  0.7503303517086666  0.4993236713833683  0.9255550872794764
  0.0002617542750429  0.7503896170043316  0.9266628954134931
  0.2493464091508436  0.7503934482405079  0.9266653784292419
  0.4993011881579073  0.7503577159334655  0.9255561505776559
  0.7503305599754566  0.7503541611823906  0.9255534615647804
  0.0000066796481220 -0.0000001309238565  0.2491413604097681
  0.3218099387968648 -0.0020451734135549  0.2512233888948720
  0.6802097969768499 -0.0019896708009282  0.2512156563813054
 -0.0020415573097623  0.3218104060289435  0.2512242050763042
  0.3333368362621888  0.3333334130283546  0.2563543487205460
  0.6802032204204062  0.3218062771783808  0.2512213469145308
 -0.0019848521354596  0.6801994843660996  0.2512171543053315
  0.3218075186468020  0.6802010946097407  0.2512210408078171
  0.6666636228724606  0.6666632919784448  0.2619747399764855
  0.2211076422631372  0.2211022616459255  0.3009141178813430
  0.5577869970363415  0.2211040486016723  0.3009199820079256
  0.8925309838345011  0.2149145149717837  0.3043699965294794
  0.2211063993378185  0.5577868318354545  0.3009200994990170
  0.5493399452220780  0.5493383196801561  0.3000632292620966
  0.9013069472503834  0.5493701505946538  0.3000541928970212
  0.2149171843821079  0.8925269195141730  0.3043692803831273
  0.5493713172792488  0.9013076682720037  0.3000536501667601
  0.8925505298454328  0.8925475844873422  0.3043658012635875
  0.1132545438185275  0.1132502793757543  0.3525369321216500
  0.4426500811064492  0.1146950677232088  0.3506177717563825
  0.7735002309445418  0.1132395253069861  0.3525420666752245
  0.1146940776229373  0.4426490818554454  0.3506183441383789
  0.4426472868777249  0.4426449906531890  0.3506218238570425
  0.7761975357043021  0.4476310036386490  0.3490530072653274
  0.1132414847622803  0.7735005578793978  0.3525417270042057
  0.4476310777495004  0.7761965780244822  0.3490520098924634
  0.7761878991222756  0.7761869743668921  0.3490530993674361
  0.0000011622631655  0.0000013326248753  0.3998759534109203
  0.3359278370581139 -0.0021836513953983  0.4001953286138285
  0.6662518222852362 -0.0021873223693371  0.4001950462543316
 -0.0021817085160269  0.3359244233580559  0.4001952193158043
  0.3333315984621611  0.3333305963140232  0.4009321102202680
  0.6662691130678340  0.3359285645202848  0.4001907795955604
 -0.0021870908611139  0.6662538280393172  0.4001936266715834
  0.3359284749712813  0.6662646939488609  0.4001908848456112
  0.6666668897353938  0.6666688304973560  0.4002970364510782
  0.2214588320878910  0.2214566963329395  0.4503984496448095
  0.5570819239988408  0.2214584434304112  0.4503986717997633
  0.8878866443062422  0.2242420809287387  0.4500651729441723
  0.2214603182646320  0.5570767818360648  0.4503970579247786
  0.5568416794698247  0.5568378470764502  0.4505412208103938
  0.8863274346777373  0.5568311666270999  0.4505425283735561
  0.2242427582642314  0.8878824219788995  0.4500651585881204
  0.5568334491991326  0.8863252326277610  0.4505440090583522
  0.8878806184013253  0.8878720353284190  0.4500664642848439
  0.1085939376870821  0.1085897035836842  0.4993751768494110
  0.4455359476260157  0.1089230225150697  0.4982674843488938
  0.7828230435239625  0.1085973947580324  0.4993661355070164
  0.1089236781604084  0.4455333996591837  0.4982680481490369
  0.4455437379700244  0.4455433597513694  0.4982636137370555
  0.7784546306787105  0.4430700073031499  0.5019021191012125
  0.1086028280381401  0.7828163924981426  0.4993665021407038
  0.4430654204086215  0.7784533960105726  0.5019020442417645
  0.7784678328113646  0.7784538407668649  0.5019000193301667
 -0.0000028391914229 -0.0000037945057637  0.5500092555083526
  0.3264730161059755  0.0111936842969469  0.5484561449890687
  0.6623522602115514  0.0112126509970474  0.5484465239105498
  0.0111922430942072  0.3264677871158249  0.5484560915366209
  0.3333395964259689  0.3333384537696539  0.5455640829600442
  0.6623226770459592  0.3264328142573291  0.5484517518052936
  0.0112165029446136  0.6623488925333652  0.5484470080313953
  0.3264365208774029  0.6623140648818981  0.5484525481650799
  0.6666567836150190  0.6666688790207768  0.5507969638887329
  0.2289283131059305  0.2289322911322228  0.6018634003916123
  0.5421744664202569  0.2288934285886864  0.6018664023422250
  0.8871564510096960  0.2256953829026062  0.5942323647653511
  0.2288952518777318  0.5421660467769471  0.6018698713698306
  0.5512530038738972  0.5512516456983014  0.5953838592279289
  0.8974716179338527  0.5512883968786527  0.5953837745094850
  0.2256963017589855  0.8871536542276166  0.5942302131454985
  0.5512817203446524  0.8974833368214812  0.5953913134514778
  0.8871493927867309  0.8871436348142215  0.5942361587949239
  0.1109868766078114  0.1109853586581905  0.2804316767872164
  0.4435001148470530  0.1129939519658351  0.2735718715873621
  0.7780201478642765  0.1109957880607463  0.2804336902880640
  0.1129967922707218  0.4435046157902583  0.2735728272387236
  0.4434993997962056  0.4435013896112959  0.2735758889038945
  0.7767500585632483  0.4464914615265355  0.2764057007885492
  0.1109900852406686  0.7780266907881902  0.2804333698122658
  0.4464947351596325  0.7767467718380389  0.2764051700682946
  0.7767597371117322  0.7767501458502053  0.2764037939457786
  0.2235483301759860  0.2235458379636125  0.3751815208971616
  0.5529046870000250  0.2235447216027951  0.3751816113771783
  0.8879039020870080  0.2241927079443484  0.3764779386416311
  0.2235466609544557  0.5529039978355276  0.3751794791175189
  0.5549049463939278  0.5549027884581959  0.3753787443495299
  0.8901958489614203  0.5549045603248334  0.3753779698569249
  0.2241926826794203  0.8879023622785905  0.3764771709701705
  0.5549045864393195  0.8901956730238462  0.3753773664395612
  0.8879044880328738  0.8879035401560286  0.3764762090425857
  0.0000022333881997  0.0000009131478582  0.4752574260152818
  0.3321317977726412 -0.0006281591252824  0.4753554584345419
  0.6684995622470974 -0.0006257723936705  0.4753543104462420
  0.9993740229793232  0.3321317371486243  0.4753552890307240
  0.3333308467043025  0.3333377852290291  0.4736703309227638
  0.6684958196259428  0.3321282868196030  0.4753551279109936
  0.9993797007713902  0.6684922645459850  0.4753535531612581
  0.3321286202384121  0.6684938662063971  0.4753544061645950
  0.6666654531002666  0.6666649590161695  0.4754234286732840
  0.1093774423215525  0.1093788940251281  0.5751475036161124
  0.4444017757015850  0.1112107724672875  0.5704878545738922
  0.7812481852558060  0.1093764507710126  0.5751473218632850
  0.1112116047040181  0.4444002306322704  0.5704915259617516
  0.4443860893363923  0.4443871396218679  0.5704898655307793
  0.7773465649011019  0.4453128174370183  0.5754848095020781
  0.1093769259875468  0.7812461977146947  0.5751473415525669
  0.4453198440461545  0.7773411889609519  0.5754855094365789
  0.7773462767566971  0.7773427045649388  0.5754817812239904
 
  0.00000000E+00  0.00000000E+00  0.00000000E+00
  0.00000000E+00  0.00000000E+00  0.00000000E+00
  0.00000000E+00  0.00000000E+00  0.00000000E+00
  0.00000000E+00  0.00000000E+00  0.00000000E+00
  0.00000000E+00  0.00000000E+00  0.00000000E+00
  0.00000000E+00  0.00000000E+00  0.00000000E+00
  0.00000000E+00  0.00000000E+00  0.00000000E+00
  0.00000000E+00  0.00000000E+00  0.00000000E+00
  0.00000000E+00  0.00000000E+00  0.00000000E+00
  0.00000000E+00  0.00000000E+00  0.00000000E+00
  0.00000000E+00  0.00000000E+00  0.00000000E+00
  0.00000000E+00  0.00000000E+00  0.00000000E+00
  0.00000000E+00  0.00000000E+00  0.00000000E+00
  0.00000000E+00  0.00000000E+00  0.00000000E+00
  0.00000000E+00  0.00000000E+00  0.00000000E+00
  0.00000000E+00  0.00000000E+00  0.00000000E+00
  0.00000000E+00  0.00000000E+00  0.00000000E+00
  0.00000000E+00  0.00000000E+00  0.00000000E+00
  0.00000000E+00  0.00000000E+00  0.00000000E+00
  0.00000000E+00  0.00000000E+00  0.00000000E+00
  0.00000000E+00  0.00000000E+00  0.00000000E+00
  0.00000000E+00  0.00000000E+00  0.00000000E+00
  0.00000000E+00  0.00000000E+00  0.00000000E+00
  0.00000000E+00  0.00000000E+00  0.00000000E+00
  0.00000000E+00  0.00000000E+00  0.00000000E+00
  0.00000000E+00  0.00000000E+00  0.00000000E+00
  0.00000000E+00  0.00000000E+00  0.00000000E+00
  0.00000000E+00  0.00000000E+00  0.00000000E+00
  0.00000000E+00  0.00000000E+00  0.00000000E+00
  0.00000000E+00  0.00000000E+00  0.00000000E+00
  0.00000000E+00  0.00000000E+00  0.00000000E+00
  0.00000000E+00  0.00000000E+00  0.00000000E+00
  0.00000000E+00  0.00000000E+00  0.00000000E+00
  0.00000000E+00  0.00000000E+00  0.00000000E+00
  0.00000000E+00  0.00000000E+00  0.00000000E+00
  0.00000000E+00  0.00000000E+00  0.00000000E+00
  0.00000000E+00  0.00000000E+00  0.00000000E+00
  0.00000000E+00  0.00000000E+00  0.00000000E+00
  0.00000000E+00  0.00000000E+00  0.00000000E+00
  0.00000000E+00  0.00000000E+00  0.00000000E+00
  0.00000000E+00  0.00000000E+00  0.00000000E+00
  0.00000000E+00  0.00000000E+00  0.00000000E+00
  0.00000000E+00  0.00000000E+00  0.00000000E+00
  0.00000000E+00  0.00000000E+00  0.00000000E+00
  0.00000000E+00  0.00000000E+00  0.00000000E+00
  0.00000000E+00  0.00000000E+00  0.00000000E+00
  0.00000000E+00  0.00000000E+00  0.00000000E+00
  0.00000000E+00  0.00000000E+00  0.00000000E+00
  0.00000000E+00  0.00000000E+00  0.00000000E+00
  0.00000000E+00  0.00000000E+00  0.00000000E+00
  0.00000000E+00  0.00000000E+00  0.00000000E+00
  0.00000000E+00  0.00000000E+00  0.00000000E+00
  0.00000000E+00  0.00000000E+00  0.00000000E+00
  0.00000000E+00  0.00000000E+00  0.00000000E+00
  0.00000000E+00  0.00000000E+00  0.00000000E+00
  0.00000000E+00  0.00000000E+00  0.00000000E+00
  0.00000000E+00  0.00000000E+00  0.00000000E+00
  0.00000000E+00  0.00000000E+00  0.00000000E+00
  0.00000000E+00  0.00000000E+00  0.00000000E+00
  0.00000000E+00  0.00000000E+00  0.00000000E+00
  0.00000000E+00  0.00000000E+00  0.00000000E+00
  0.00000000E+00  0.00000000E+00  0.00000000E+00
  0.00000000E+00  0.00000000E+00  0.00000000E+00
  0.00000000E+00  0.00000000E+00  0.00000000E+00
  0.00000000E+00  0.00000000E+00  0.00000000E+00
  0.00000000E+00  0.00000000E+00  0.00000000E+00
  0.00000000E+00  0.00000000E+00  0.00000000E+00
  0.00000000E+00  0.00000000E+00  0.00000000E+00
  0.00000000E+00  0.00000000E+00  0.00000000E+00
  0.00000000E+00  0.00000000E+00  0.00000000E+00
  0.00000000E+00  0.00000000E+00  0.00000000E+00
  0.00000000E+00  0.00000000E+00  0.00000000E+00
  0.00000000E+00  0.00000000E+00  0.00000000E+00
  0.00000000E+00  0.00000000E+00  0.00000000E+00
  0.00000000E+00  0.00000000E+00  0.00000000E+00
  0.00000000E+00  0.00000000E+00  0.00000000E+00
  0.00000000E+00  0.00000000E+00  0.00000000E+00
  0.00000000E+00  0.00000000E+00  0.00000000E+00
  0.00000000E+00  0.00000000E+00  0.00000000E+00
  0.00000000E+00  0.00000000E+00  0.00000000E+00
  0.00000000E+00  0.00000000E+00  0.00000000E+00
  0.00000000E+00  0.00000000E+00  0.00000000E+00
  0.00000000E+00  0.00000000E+00  0.00000000E+00
  0.00000000E+00  0.00000000E+00  0.00000000E+00
  0.00000000E+00  0.00000000E+00  0.00000000E+00
  0.00000000E+00  0.00000000E+00  0.00000000E+00
  0.00000000E+00  0.00000000E+00  0.00000000E+00
  0.00000000E+00  0.00000000E+00  0.00000000E+00
  0.00000000E+00  0.00000000E+00  0.00000000E+00
  0.00000000E+00  0.00000000E+00  0.00000000E+00
  0.00000000E+00  0.00000000E+00  0.00000000E+00
  0.00000000E+00  0.00000000E+00  0.00000000E+00
  0.00000000E+00  0.00000000E+00  0.00000000E+00
  0.00000000E+00  0.00000000E+00  0.00000000E+00
  0.00000000E+00  0.00000000E+00  0.00000000E+00
  0.00000000E+00  0.00000000E+00  0.00000000E+00
  0.00000000E+00  0.00000000E+00  0.00000000E+00
  0.00000000E+00  0.00000000E+00  0.00000000E+00
  0.00000000E+00  0.00000000E+00  0.00000000E+00
  0.00000000E+00  0.00000000E+00  0.00000000E+00
  0.00000000E+00  0.00000000E+00  0.00000000E+00
  0.00000000E+00  0.00000000E+00  0.00000000E+00
  0.00000000E+00  0.00000000E+00  0.00000000E+00
  0.00000000E+00  0.00000000E+00  0.00000000E+00
  0.00000000E+00  0.00000000E+00  0.00000000E+00
  0.00000000E+00  0.00000000E+00  0.00000000E+00
  0.00000000E+00  0.00000000E+00  0.00000000E+00
  0.00000000E+00  0.00000000E+00  0.00000000E+00
  0.00000000E+00  0.00000000E+00  0.00000000E+00
  0.00000000E+00  0.00000000E+00  0.00000000E+00
  0.00000000E+00  0.00000000E+00  0.00000000E+00
  0.00000000E+00  0.00000000E+00  0.00000000E+00
  0.00000000E+00  0.00000000E+00  0.00000000E+00
  0.00000000E+00  0.00000000E+00  0.00000000E+00
  0.00000000E+00  0.00000000E+00  0.00000000E+00
  0.00000000E+00  0.00000000E+00  0.00000000E+00
  0.00000000E+00  0.00000000E+00  0.00000000E+00
  0.00000000E+00  0.00000000E+00  0.00000000E+00
  0.00000000E+00  0.00000000E+00  0.00000000E+00
  0.00000000E+00  0.00000000E+00  0.00000000E+00
  0.00000000E+00  0.00000000E+00  0.00000000E+00
  0.00000000E+00  0.00000000E+00  0.00000000E+00
  0.00000000E+00  0.00000000E+00  0.00000000E+00
  0.00000000E+00  0.00000000E+00  0.00000000E+00
  0.00000000E+00  0.00000000E+00  0.00000000E+00
  0.00000000E+00  0.00000000E+00  0.00000000E+00
  0.00000000E+00  0.00000000E+00  0.00000000E+00
  0.00000000E+00  0.00000000E+00  0.00000000E+00
  0.00000000E+00  0.00000000E+00  0.00000000E+00
  0.00000000E+00  0.00000000E+00  0.00000000E+00
  0.00000000E+00  0.00000000E+00  0.00000000E+00
  0.00000000E+00  0.00000000E+00  0.00000000E+00
  0.00000000E+00  0.00000000E+00  0.00000000E+00
  0.00000000E+00  0.00000000E+00  0.00000000E+00
  0.00000000E+00  0.00000000E+00  0.00000000E+00
  0.00000000E+00  0.00000000E+00  0.00000000E+00
  0.00000000E+00  0.00000000E+00  0.00000000E+00
  0.00000000E+00  0.00000000E+00  0.00000000E+00
  0.00000000E+00  0.00000000E+00  0.00000000E+00
  0.00000000E+00  0.00000000E+00  0.00000000E+00
  0.00000000E+00  0.00000000E+00  0.00000000E+00
  0.00000000E+00  0.00000000E+00  0.00000000E+00
  0.00000000E+00  0.00000000E+00  0.00000000E+00
  0.00000000E+00  0.00000000E+00  0.00000000E+00
  0.00000000E+00  0.00000000E+00  0.00000000E+00
  0.00000000E+00  0.00000000E+00  0.00000000E+00
  0.00000000E+00  0.00000000E+00  0.00000000E+00
  0.00000000E+00  0.00000000E+00  0.00000000E+00
  0.00000000E+00  0.00000000E+00  0.00000000E+00
  0.00000000E+00  0.00000000E+00  0.00000000E+00
  0.00000000E+00  0.00000000E+00  0.00000000E+00
  0.00000000E+00  0.00000000E+00  0.00000000E+00
  0.00000000E+00  0.00000000E+00  0.00000000E+00
  0.00000000E+00  0.00000000E+00  0.00000000E+00
  0.00000000E+00  0.00000000E+00  0.00000000E+00
  0.00000000E+00  0.00000000E+00  0.00000000E+00
  0.00000000E+00  0.00000000E+00  0.00000000E+00
  0.00000000E+00  0.00000000E+00  0.00000000E+00
  0.00000000E+00  0.00000000E+00  0.00000000E+00
  0.00000000E+00  0.00000000E+00  0.00000000E+00
  0.00000000E+00  0.00000000E+00  0.00000000E+00
  0.00000000E+00  0.00000000E+00  0.00000000E+00
  0.00000000E+00  0.00000000E+00  0.00000000E+00
  0.00000000E+00  0.00000000E+00  0.00000000E+00
  0.00000000E+00  0.00000000E+00  0.00000000E+00
  0.00000000E+00  0.00000000E+00  0.00000000E+00
  0.00000000E+00  0.00000000E+00  0.00000000E+00
  0.00000000E+00  0.00000000E+00  0.00000000E+00
  0.00000000E+00  0.00000000E+00  0.00000000E+00
  0.00000000E+00  0.00000000E+00  0.00000000E+00
  0.00000000E+00  0.00000000E+00  0.00000000E+00
  0.00000000E+00  0.00000000E+00  0.00000000E+00
  0.00000000E+00  0.00000000E+00  0.00000000E+00
  0.00000000E+00  0.00000000E+00  0.00000000E+00
  0.00000000E+00  0.00000000E+00  0.00000000E+00
  0.00000000E+00  0.00000000E+00  0.00000000E+00
  0.00000000E+00  0.00000000E+00  0.00000000E+00
  0.00000000E+00  0.00000000E+00  0.00000000E+00
  0.00000000E+00  0.00000000E+00  0.00000000E+00
  0.00000000E+00  0.00000000E+00  0.00000000E+00
  0.00000000E+00  0.00000000E+00  0.00000000E+00
  0.00000000E+00  0.00000000E+00  0.00000000E+00
  0.00000000E+00  0.00000000E+00  0.00000000E+00
  0.00000000E+00  0.00000000E+00  0.00000000E+00
  0.00000000E+00  0.00000000E+00  0.00000000E+00
  0.00000000E+00  0.00000000E+00  0.00000000E+00
  0.00000000E+00  0.00000000E+00  0.00000000E+00
  0.00000000E+00  0.00000000E+00  0.00000000E+00
  0.00000000E+00  0.00000000E+00  0.00000000E+00
  0.00000000E+00  0.00000000E+00  0.00000000E+00
  0.00000000E+00  0.00000000E+00  0.00000000E+00
  0.00000000E+00  0.00000000E+00  0.00000000E+00
  0.00000000E+00  0.00000000E+00  0.00000000E+00
  0.00000000E+00  0.00000000E+00  0.00000000E+00
  0.00000000E+00  0.00000000E+00  0.00000000E+00
  0.00000000E+00  0.00000000E+00  0.00000000E+00
  0.00000000E+00  0.00000000E+00  0.00000000E+00
  0.00000000E+00  0.00000000E+00  0.00000000E+00
  0.00000000E+00  0.00000000E+00  0.00000000E+00
  0.00000000E+00  0.00000000E+00  0.00000000E+00
  0.00000000E+00  0.00000000E+00  0.00000000E+00
  0.00000000E+00  0.00000000E+00  0.00000000E+00
  0.00000000E+00  0.00000000E+00  0.00000000E+00
  0.00000000E+00  0.00000000E+00  0.00000000E+00
  0.00000000E+00  0.00000000E+00  0.00000000E+00
  0.00000000E+00  0.00000000E+00  0.00000000E+00
  0.00000000E+00  0.00000000E+00  0.00000000E+00
  0.00000000E+00  0.00000000E+00  0.00000000E+00
  0.00000000E+00  0.00000000E+00  0.00000000E+00
  0.00000000E+00  0.00000000E+00  0.00000000E+00
  0.00000000E+00  0.00000000E+00  0.00000000E+00
  0.00000000E+00  0.00000000E+00  0.00000000E+00
  0.00000000E+00  0.00000000E+00  0.00000000E+00
  0.00000000E+00  0.00000000E+00  0.00000000E+00
  0.00000000E+00  0.00000000E+00  0.00000000E+00
  0.00000000E+00  0.00000000E+00  0.00000000E+00
  0.00000000E+00  0.00000000E+00  0.00000000E+00
  0.00000000E+00  0.00000000E+00  0.00000000E+00
  0.00000000E+00  0.00000000E+00  0.00000000E+00
  0.00000000E+00  0.00000000E+00  0.00000000E+00
