&CONTROL
  calculation = 'scf'
  tstress = .true.
  tprnfor = .true.
  pseudo_dir = '~/qe/pot'
  disk_io = 'low'
  wf_collect = .true.
/
&SYSTEM
  ecutwfc      =  60.0
  occupations  = "smearing"
  smearing     = "m-p"
  degauss      = 0.01
/
&electrons
  mixing_beta = 0.7
  conv_thr = 1.0d-8
  electron_maxstep = 1
/
ATOMIC_SPECIES
Al 26.981 Al.pbesol-nl-kjpaw_psl.1.0.0.UPF
Mg 24.305 Mg.pbesol-spnl-kjpaw_psl.1.0.0.UPF
O  16.000 O.pbesol-n-kjpaw_psl.1.0.0.UPF
ATOMIC_POSITIONS crystal

K_POINTS automatic
1 1 1 0 0 0
