ALGO = Fast
EDIFF = 0.0001
EDIFFG = -0.04
ENCUT = 300
IBAND = 171 172 173 174
IBRION = 1
ICHARG = 1
ISMEAR = 0
KPUSE = 1
LREAL = Auto
LSEPB = True
LSEPK = True
LVHAR = False
LVTOT = False
LWAVE = False
MAXMIX = 40
NCORE = 24
NEDOS = 1000
NELM = 200
NELMIN = 4
NSW = 100
POTIM = 0.3
PREC = Normal
SIGMA = 0.05
SYSTEM = Spinel
