Al2
1.0
4.0 0.0 0.0
0.0 4.0 0.0
0.0 0.0 4.0
Al
2
Selective dynamics
direct
0.000000 0.000000 0.000000 T T T Al
0.500000 0.500000 0.500000 T T T Al
