Mg54 Al108 O216
1.0
-12.232500 -12.232500 0.000000
-12.232500 0.000000 -12.232500
-0.000000 -12.232500 -12.232500
Al Mg O
108 54 216
direct
0.000000 0.000000 0.000000 Al
1.000000 0.000000 0.333333 Al
1.000000 0.000000 0.666667 Al
0.000000 0.333333 0.000000 Al
1.000000 0.333333 0.333333 Al
1.000000 0.333333 0.666667 Al
0.000000 0.666667 0.000000 Al
0.000000 0.666667 0.333333 Al
1.000000 0.666667 0.666667 Al
0.333333 0.000000 0.000000 Al
0.333333 0.000000 0.333333 Al
0.333333 0.000000 0.666667 Al
0.333333 0.333333 0.000000 Al
0.333333 0.333333 0.333333 Al
0.333333 0.333333 0.666667 Al
0.333333 0.666667 0.000000 Al
0.333333 0.666667 0.333333 Al
0.333333 0.666667 0.666667 Al
0.666667 0.000000 0.000000 Al
0.666667 0.000000 0.333333 Al
0.666667 0.000000 0.666667 Al
0.666667 0.333333 0.000000 Al
0.666667 0.333333 0.333333 Al
0.666667 0.333333 0.666667 Al
0.666667 0.666667 0.000000 Al
0.666667 0.666667 0.333333 Al
0.666667 0.666667 0.666667 Al
0.166667 1.000000 0.000000 Al
0.166667 0.000000 0.333333 Al
0.166667 0.000000 0.666667 Al
0.166667 0.333333 0.000000 Al
0.166667 0.333333 0.333333 Al
0.166667 0.333333 0.666667 Al
0.166667 0.666667 0.000000 Al
0.166667 0.666667 0.333333 Al
0.166667 0.666667 0.666667 Al
0.500000 0.000000 0.000000 Al
0.500000 0.000000 0.333333 Al
0.500000 0.000000 0.666667 Al
0.500000 0.333333 0.000000 Al
0.500000 0.333333 0.333333 Al
0.500000 0.333333 0.666667 Al
0.500000 0.666667 0.000000 Al
0.500000 0.666667 0.333333 Al
0.500000 0.666667 0.666667 Al
0.833333 0.000000 0.000000 Al
0.833333 1.000000 0.333333 Al
0.833333 0.000000 0.666667 Al
0.833333 0.333333 0.000000 Al
0.833333 0.333333 0.333333 Al
0.833333 0.333333 0.666667 Al
0.833333 0.666667 0.000000 Al
0.833333 0.666667 0.333333 Al
0.833333 0.666667 0.666667 Al
0.000000 0.166667 0.000000 Al
1.000000 0.166667 0.333333 Al
1.000000 0.166667 0.666667 Al
0.000000 0.500000 0.000000 Al
1.000000 0.500000 0.333333 Al
1.000000 0.500000 0.666667 Al
0.000000 0.833333 0.000000 Al
1.000000 0.833333 0.333333 Al
0.000000 0.833333 0.666667 Al
0.333333 0.166667 1.000000 Al
0.333333 0.166667 0.333333 Al
0.333333 0.166667 0.666667 Al
0.333333 0.500000 0.000000 Al
0.333333 0.500000 0.333333 Al
0.333333 0.500000 0.666667 Al
0.333333 0.833333 0.000000 Al
0.333333 0.833333 0.333333 Al
0.333333 0.833333 0.666667 Al
0.666667 0.166667 1.000000 Al
0.666667 0.166667 0.333333 Al
0.666667 0.166667 0.666667 Al
0.666667 0.500000 0.000000 Al
0.666667 0.500000 0.333333 Al
0.666667 0.500000 0.666667 Al
0.666667 0.833333 0.000000 Al
0.666667 0.833333 0.333333 Al
0.666667 0.833333 0.666667 Al
0.000000 0.333333 0.166667 Al
0.000000 0.333333 0.500000 Al
1.000000 0.333333 0.833333 Al
0.000000 0.666667 0.166667 Al
0.000000 0.666667 0.500000 Al
0.000000 0.666667 0.833333 Al
0.000000 1.000000 0.166667 Al
0.000000 1.000000 0.500000 Al
0.000000 0.000000 0.833333 Al
0.333333 0.333333 0.166667 Al
0.333333 0.333333 0.500000 Al
0.333333 0.333333 0.833333 Al
0.333333 0.666667 0.166667 Al
0.333333 0.666667 0.500000 Al
0.333333 0.666667 0.833333 Al
0.333333 1.000000 0.166667 Al
0.333333 1.000000 0.500000 Al
0.333333 0.000000 0.833333 Al
0.666667 0.333333 0.166667 Al
0.666667 0.333333 0.500000 Al
0.666667 0.333333 0.833333 Al
0.666667 0.666667 0.166667 Al
0.666667 0.666667 0.500000 Al
0.666667 0.666667 0.833333 Al
0.666667 1.000000 0.166667 Al
0.666667 1.000000 0.500000 Al
0.666667 0.000000 0.833333 Al
0.208333 0.208333 0.208333 Mg
0.208333 0.208333 0.541667 Mg
0.208333 0.208333 0.875000 Mg
0.208333 0.541667 0.208333 Mg
0.208333 0.541667 0.541667 Mg
0.208333 0.541667 0.875000 Mg
0.208333 0.875000 0.208333 Mg
0.208333 0.875000 0.541667 Mg
0.208333 0.875000 0.875000 Mg
0.541667 0.208333 0.208333 Mg
0.541667 0.208333 0.541667 Mg
0.541667 0.208333 0.875000 Mg
0.541667 0.541667 0.208333 Mg
0.541667 0.541667 0.541667 Mg
0.541667 0.541667 0.875000 Mg
0.541667 0.875000 0.208333 Mg
0.541667 0.875000 0.541667 Mg
0.541667 0.875000 0.875000 Mg
0.875000 0.208333 0.208333 Mg
0.875000 0.208333 0.541667 Mg
0.875000 0.208333 0.875000 Mg
0.875000 0.541667 0.208333 Mg
0.875000 0.541667 0.541667 Mg
0.875000 0.541667 0.875000 Mg
0.875000 0.875000 0.208333 Mg
0.875000 0.875000 0.541667 Mg
0.875000 0.875000 0.875000 Mg
0.125000 0.125000 0.125000 Mg
0.125000 0.125000 0.458333 Mg
0.125000 0.125000 0.791667 Mg
0.125000 0.458333 0.125000 Mg
0.125000 0.458333 0.458333 Mg
0.125000 0.458333 0.791667 Mg
0.125000 0.791667 0.125000 Mg
0.125000 0.791667 0.458333 Mg
0.125000 0.791667 0.791667 Mg
0.458333 0.125000 0.125000 Mg
0.458333 0.125000 0.458333 Mg
0.458333 0.125000 0.791667 Mg
0.458333 0.458333 0.125000 Mg
0.458333 0.458333 0.458333 Mg
0.458333 0.458333 0.791667 Mg
0.458333 0.791667 0.125000 Mg
0.458333 0.791667 0.458333 Mg
0.458333 0.791667 0.791667 Mg
0.791667 0.125000 0.125000 Mg
0.791667 0.125000 0.458333 Mg
0.791667 0.125000 0.791667 Mg
0.791667 0.458333 0.125000 Mg
0.791667 0.458333 0.458333 Mg
0.791667 0.458333 0.791667 Mg
0.791667 0.791667 0.125000 Mg
0.791667 0.791667 0.458333 Mg
0.791667 0.791667 0.791667 Mg
0.254067 0.254067 0.254067 O
0.254067 0.254067 0.587400 O
0.254067 0.254067 0.920733 O
0.254067 0.587400 0.254067 O
0.254067 0.587400 0.587400 O
0.254067 0.587400 0.920733 O
0.254067 0.920733 0.254067 O
0.254067 0.920733 0.587400 O
0.254067 0.920733 0.920733 O
0.587400 0.254067 0.254067 O
0.587400 0.254067 0.587400 O
0.587400 0.254067 0.920733 O
0.587400 0.587400 0.254067 O
0.587400 0.587400 0.587400 O
0.587400 0.587400 0.920733 O
0.587400 0.920733 0.254067 O
0.587400 0.920733 0.587400 O
0.587400 0.920733 0.920733 O
0.920733 0.254067 0.254067 O
0.920733 0.254067 0.587400 O
0.920733 0.254067 0.920733 O
0.920733 0.587400 0.254067 O
0.920733 0.587400 0.587400 O
0.920733 0.587400 0.920733 O
0.920733 0.920733 0.254067 O
0.920733 0.920733 0.587400 O
0.920733 0.920733 0.920733 O
0.071133 0.254067 0.254067 O
0.071133 0.254067 0.587400 O
0.071133 0.254067 0.920733 O
0.071133 0.587400 0.254067 O
0.071133 0.587400 0.587400 O
0.071133 0.587400 0.920733 O
0.071133 0.920733 0.254067 O
0.071133 0.920733 0.587400 O
0.071133 0.920733 0.920733 O
0.404467 0.254067 0.254067 O
0.404467 0.254067 0.587400 O
0.404467 0.254067 0.920733 O
0.404467 0.587400 0.254067 O
0.404467 0.587400 0.587400 O
0.404467 0.587400 0.920733 O
0.404467 0.920733 0.254067 O
0.404467 0.920733 0.587400 O
0.404467 0.920733 0.920733 O
0.737800 0.254067 0.254067 O
0.737800 0.254067 0.587400 O
0.737800 0.254067 0.920733 O
0.737800 0.587400 0.254067 O
0.737800 0.587400 0.587400 O
0.737800 0.587400 0.920733 O
0.737800 0.920733 0.254067 O
0.737800 0.920733 0.587400 O
0.737800 0.920733 0.920733 O
0.254067 0.071133 0.254067 O
0.254067 0.071133 0.587400 O
0.254067 0.071133 0.920733 O
0.254067 0.404467 0.254067 O
0.254067 0.404467 0.587400 O
0.254067 0.404467 0.920733 O
0.254067 0.737800 0.254067 O
0.254067 0.737800 0.587400 O
0.254067 0.737800 0.920733 O
0.587400 0.071133 0.254067 O
0.587400 0.071133 0.587400 O
0.587400 0.071133 0.920733 O
0.587400 0.404467 0.254067 O
0.587400 0.404467 0.587400 O
0.587400 0.404467 0.920733 O
0.587400 0.737800 0.254067 O
0.587400 0.737800 0.587400 O
0.587400 0.737800 0.920733 O
0.920733 0.071133 0.254067 O
0.920733 0.071133 0.587400 O
0.920733 0.071133 0.920733 O
0.920733 0.404467 0.254067 O
0.920733 0.404467 0.587400 O
0.920733 0.404467 0.920733 O
0.920733 0.737800 0.254067 O
0.920733 0.737800 0.587400 O
0.920733 0.737800 0.920733 O
0.254067 0.254067 0.071133 O
0.254067 0.254067 0.404467 O
0.254067 0.254067 0.737800 O
0.254067 0.587400 0.071133 O
0.254067 0.587400 0.404467 O
0.254067 0.587400 0.737800 O
0.254067 0.920733 0.071133 O
0.254067 0.920733 0.404467 O
0.254067 0.920733 0.737800 O
0.587400 0.254067 0.071133 O
0.587400 0.254067 0.404467 O
0.587400 0.254067 0.737800 O
0.587400 0.587400 0.071133 O
0.587400 0.587400 0.404467 O
0.587400 0.587400 0.737800 O
0.587400 0.920733 0.071133 O
0.587400 0.920733 0.404467 O
0.587400 0.920733 0.737800 O
0.920733 0.254067 0.071133 O
0.920733 0.254067 0.404467 O
0.920733 0.254067 0.737800 O
0.920733 0.587400 0.071133 O
0.920733 0.587400 0.404467 O
0.920733 0.587400 0.737800 O
0.920733 0.920733 0.071133 O
0.920733 0.920733 0.404467 O
0.920733 0.920733 0.737800 O
0.262200 0.079267 0.079267 O
0.262200 0.079267 0.412600 O
0.262200 0.079267 0.745933 O
0.262200 0.412600 0.079267 O
0.262200 0.412600 0.412600 O
0.262200 0.412600 0.745933 O
0.262200 0.745933 0.079267 O
0.262200 0.745933 0.412600 O
0.262200 0.745933 0.745933 O
0.595533 0.079267 0.079267 O
0.595533 0.079267 0.412600 O
0.595533 0.079267 0.745933 O
0.595533 0.412600 0.079267 O
0.595533 0.412600 0.412600 O
0.595533 0.412600 0.745933 O
0.595533 0.745933 0.079267 O
0.595533 0.745933 0.412600 O
0.595533 0.745933 0.745933 O
0.928867 0.079267 0.079267 O
0.928867 0.079267 0.412600 O
0.928867 0.079267 0.745933 O
0.928867 0.412600 0.079267 O
0.928867 0.412600 0.412600 O
0.928867 0.412600 0.745933 O
0.928867 0.745933 0.079267 O
0.928867 0.745933 0.412600 O
0.928867 0.745933 0.745933 O
0.079267 0.079267 0.079267 O
0.079267 0.079267 0.412600 O
0.079267 0.079267 0.745933 O
0.079267 0.412600 0.079267 O
0.079267 0.412600 0.412600 O
0.079267 0.412600 0.745933 O
0.079267 0.745933 0.079267 O
0.079267 0.745933 0.412600 O
0.079267 0.745933 0.745933 O
0.412600 0.079267 0.079267 O
0.412600 0.079267 0.412600 O
0.412600 0.079267 0.745933 O
0.412600 0.412600 0.079267 O
0.412600 0.412600 0.412600 O
0.412600 0.412600 0.745933 O
0.412600 0.745933 0.079267 O
0.412600 0.745933 0.412600 O
0.412600 0.745933 0.745933 O
0.745933 0.079267 0.079267 O
0.745933 0.079267 0.412600 O
0.745933 0.079267 0.745933 O
0.745933 0.412600 0.079267 O
0.745933 0.412600 0.412600 O
0.745933 0.412600 0.745933 O
0.745933 0.745933 0.079267 O
0.745933 0.745933 0.412600 O
0.745933 0.745933 0.745933 O
0.079267 0.262200 0.079267 O
0.079267 0.262200 0.412600 O
0.079267 0.262200 0.745933 O
0.079267 0.595533 0.079267 O
0.079267 0.595533 0.412600 O
0.079267 0.595533 0.745933 O
0.079267 0.928867 0.079267 O
0.079267 0.928867 0.412600 O
0.079267 0.928867 0.745933 O
0.412600 0.262200 0.079267 O
0.412600 0.262200 0.412600 O
0.412600 0.262200 0.745933 O
0.412600 0.595533 0.079267 O
0.412600 0.595533 0.412600 O
0.412600 0.595533 0.745933 O
0.412600 0.928867 0.079267 O
0.412600 0.928867 0.412600 O
0.412600 0.928867 0.745933 O
0.745933 0.262200 0.079267 O
0.745933 0.262200 0.412600 O
0.745933 0.262200 0.745933 O
0.745933 0.595533 0.079267 O
0.745933 0.595533 0.412600 O
0.745933 0.595533 0.745933 O
0.745933 0.928867 0.079267 O
0.745933 0.928867 0.412600 O
0.745933 0.928867 0.745933 O
0.079267 0.079267 0.262200 O
0.079267 0.079267 0.595533 O
0.079267 0.079267 0.928867 O
0.079267 0.412600 0.262200 O
0.079267 0.412600 0.595533 O
0.079267 0.412600 0.928867 O
0.079267 0.745933 0.262200 O
0.079267 0.745933 0.595533 O
0.079267 0.745933 0.928867 O
0.412600 0.079267 0.262200 O
0.412600 0.079267 0.595533 O
0.412600 0.079267 0.928867 O
0.412600 0.412600 0.262200 O
0.412600 0.412600 0.595533 O
0.412600 0.412600 0.928867 O
0.412600 0.745933 0.262200 O
0.412600 0.745933 0.595533 O
0.412600 0.745933 0.928867 O
0.745933 0.079267 0.262200 O
0.745933 0.079267 0.595533 O
0.745933 0.079267 0.928867 O
0.745933 0.412600 0.262200 O
0.745933 0.412600 0.595533 O
0.745933 0.412600 0.928867 O
0.745933 0.745933 0.262200 O
0.745933 0.745933 0.595533 O
0.745933 0.745933 0.928867 O
