&CONTROL
  calculation = 'scf'
  tstress = .true.
  tprnfor = .true.
  pseudo_dir = '/home/i0014/i001400/src/github.com/issp-center-dev/pymc-dev/pot'
  disk_io = 'low'
  wf_collect = .true.
/
&SYSTEM
  ibrav = 0
  A =    3.54867
  nat = 12
  ntyp = 3
  ecutwfc                   =  60.0
  occupations               = "smearing"
  smearing                  = "m-p"
  degauss                   = 0.01
/
&electrons
  mixing_beta = 0.7
  conv_thr = 1.0d-8
/
CELL_PARAMETERS alat
-12.232500 -12.232500 0.000000
-12.232500 0.000000 -12.232500
-0.000000 -12.232500 -12.232500
ATOMIC_SPECIES
Al 26.981 Al.pbesol-nl-kjpaw_psl.1.0.0.UPF
Mg 24.305 Mg.pbesol-spnl-kjpaw_psl.1.0.0.UPF
O  16.000 O.pbesol-n-kjpaw_psl.1.0.0.UPF
ATOMIC_POSITIONS crystal

K_POINTS automatic
1 1 1 0 0 0
